
Gurobi 6.5.2 (linux64) logging started Tue Sep 20 21:16:18 2016


Gurobi 6.5.2 (linux64) logging started Tue Sep 20 21:16:18 2016

Optimize a model with 21 rows, 41 columns and 87 nonzeros
Coefficient statistics:
  Matrix range    [1e+00, 2e+00]
  Objective range [3e+00, 1e+02]
  Bounds range    [1e+00, 1e+00]
  RHS range       [1e+00, 1e+00]
Found heuristic solution: objective 659
Presolve removed 9 rows and 6 columns
Presolve time: 0.00s
Presolved: 12 rows, 35 columns, 72 nonzeros
Variable types: 0 continuous, 35 integer (35 binary)

Root relaxation: objective 2.880000e+02, 13 iterations, 0.00 seconds

    Nodes    |    Current Node    |     Objective Bounds      |     Work
 Expl Unexpl |  Obj  Depth IntInf | Incumbent    BestBd   Gap | It/Node Time

     0     0  306.50000    0    2  659.00000  306.50000  53.5%     -    0s
H    0     0                     308.0000000  306.50000  0.49%     -    0s

Cutting planes:
  Gomory: 1
  Lazy constraints: 1

Explored 0 nodes (15 simplex iterations) in 0.00 seconds
Thread count was 8 (of 8 available processors)

Optimal solution found (tolerance 1.00e-04)
Best objective 3.080000000000e+02, best bound 3.080000000000e+02, gap 0.0%
